l = 4;
u = 6;
m = 2;

CLAN = { DC, C1,C2, C3, C4};
hates = [| 0, 0, 0, 0, 0 
         | 0, 0, 1, 0, 0
         | 0, 1, 0, 0, 1
         | 0, 0, 0, 0, 0
         | 0, 0, 1, 0, 0 |];

WARRIOR = {WARRIOR_1, WARRIOR_2, WARRIOR_3, WARRIOR_4, WARRIOR_5, WARRIOR_6, WARRIOR_7, WARRIOR_8, WARRIOR_9, WARRIOR_10, WARRIOR_11, WARRIOR_12, WARRIOR_13, WARRIOR_14, WARRIOR_15, WARRIOR_16, WARRIOR_17, WARRIOR_18, WARRIOR_19, WARRIOR_20, WARRIOR_21, WARRIOR_22, WARRIOR_23, WARRIOR_24, WARRIOR_25, WARRIOR_26, WARRIOR_27, WARRIOR_28, WARRIOR_29, WARRIOR_30, WARRIOR_31, WARRIOR_32, WARRIOR_33, WARRIOR_34, WARRIOR_35, WARRIOR_36, WARRIOR_37, WARRIOR_38, WARRIOR_39, WARRIOR_40, WARRIOR_41, WARRIOR_42, WARRIOR_43, WARRIOR_44, WARRIOR_45, WARRIOR_46, WARRIOR_47, WARRIOR_48, WARRIOR_49, WARRIOR_50, WARRIOR_51, WARRIOR_52, WARRIOR_53, WARRIOR_54, WARRIOR_55, WARRIOR_56, WARRIOR_57, WARRIOR_58, WARRIOR_59, WARRIOR_60, WARRIOR_61, WARRIOR_62, WARRIOR_63, WARRIOR_64, WARRIOR_65, WARRIOR_66, WARRIOR_67, WARRIOR_68, WARRIOR_69, WARRIOR_70, WARRIOR_71, WARRIOR_72, WARRIOR_73, WARRIOR_74, WARRIOR_75, WARRIOR_76, WARRIOR_77, WARRIOR_78, WARRIOR_79, WARRIOR_80, WARRIOR_81, WARRIOR_82, WARRIOR_83, WARRIOR_84, WARRIOR_85, WARRIOR_86, WARRIOR_87, WARRIOR_88, WARRIOR_89, WARRIOR_90, WARRIOR_91, WARRIOR_92, WARRIOR_93, WARRIOR_94, WARRIOR_95, WARRIOR_96, WARRIOR_97, WARRIOR_98, WARRIOR_99, WARRIOR_100, WARRIOR_101};
dummy = min(WARRIOR);
strength = [ 0 ] ++ [ i mod 10 | i in 1..100];
clan = [ DC ] ++ [ C1 | i in 1..25 ] ++ 
       [ C2 | i in 1..25] ++ [C3 | i in 1..25] ++ [ C4 |i in 1..25 ];
